#######################
Slurm job id: 17497813_213
Running on machine: p31
Running cmd: /nfs/shared/static-builds/gurobi1202 SOFTMEMLIMIT=125 MIPFocus=3 Presolve=1 TimeLimit=500 seed=12 /nfs/models/miplib2010/k16x240.mps.bz2
#######################
Set parameter TimeLimit to value 500
Set parameter SoftMemLimit to value 125
Set parameter MIPFocus to value 3
Set parameter LogFile to value 1202-MIPFocus3-Presolve1-TimeLimit500-k16x240-2.log
Set parameter Presolve to value 1
Set parameter Seed to value 12
Using license file /opt/gurobi/gurobi.lic

Gurobi Optimizer version 12.0.2 build v12.0.2rc0 (linux64 - "Ubuntu 22.04.4 LTS")
Copyright (c) 2025, Gurobi Optimization, LLC

Read MPS format model from file /nfs/models/miplib2010/k16x240.mps.bz2
Reading time = 0.00 seconds
k16x240: 256 rows, 480 columns, 960 nonzeros

Using Gurobi shared library /nfs/shared/static-builds/gurobi1202

CPU model: Intel(R) Xeon(R) E-2388G CPU @ 3.20GHz, instruction set [SSE2|AVX|AVX2|AVX512]
Thread count: 8 physical cores, 16 logical processors, using up to 16 threads

Non-default parameters:
TimeLimit  500
SoftMemLimit  125
MIPFocus  3
Presolve  1
Seed  12

Optimize a model with 256 rows, 480 columns and 960 nonzeros
Model fingerprint: 0x4e80885f
Variable types: 240 continuous, 240 integer (240 binary)
Coefficient statistics:
  Matrix range     [1e+00, 1e+03]
  Objective range  [1e+00, 1e+03]
  Bounds range     [1e+00, 1e+03]
  RHS range        [4e+00, 4e+02]
Found heuristic solution: objective 19617.000000
Presolve time: 0.00s
Presolved: 256 rows, 480 columns, 960 nonzeros
Variable types: 240 continuous, 240 integer (240 binary)

Root relaxation: objective 2.769838e+03, 51 iterations, 0.00 seconds (0.00 work units)

    Nodes    |    Current Node    |     Objective Bounds      |     Work
 Expl Unexpl |  Obj  Depth IntInf | Incumbent    BestBd   Gap | It/Node Time

     0     0 2769.83800    0   14 19617.0000 2769.83800  85.9%     -    0s
H    0     0                    11359.000000 2769.83800  75.6%     -    0s
H    0     0                    11195.000000 2769.83800  75.3%     -    0s
H    0     0                    11088.000000 2769.83800  75.0%     -    0s
H    0     0                    11074.000000 2769.83800  75.0%     -    0s
H    0     0                    10916.000000 8116.87580  25.6%     -    0s
     0     0 8116.87580    0   26 10916.0000 8116.87580  25.6%     -    0s
H    0     0                    10838.000000 8182.85928  24.5%     -    0s
H    0     0                    10836.000000 8182.85928  24.5%     -    0s
H    0     0                    10826.000000 8182.85928  24.4%     -    0s
H    0     0                    10806.000000 8182.85928  24.3%     -    0s
H    0     0                    10778.000000 8182.85928  24.1%     -    0s
H    0     0                    10750.000000 8182.85928  23.9%     -    0s
     0     0 8741.28533    0   24 10750.0000 8741.28533  18.7%     -    0s
     0     0 8955.29750    0   32 10750.0000 8955.29750  16.7%     -    0s
     0     0 9051.08366    0   37 10750.0000 9051.08366  15.8%     -    0s
     0     0 9051.08366    0   37 10750.0000 9051.08366  15.8%     -    0s
     0     0 9187.99600    0   33 10750.0000 9187.99600  14.5%     -    0s
     0     0 9187.99600    0   30 10750.0000 9187.99600  14.5%     -    0s
     0     0 9272.97350    0   34 10750.0000 9272.97350  13.7%     -    0s
     0     0 9272.97350    0   34 10750.0000 9272.97350  13.7%     -    0s
H    0     0                    10683.000000 9272.97350  13.2%     -    0s
     0     2 9272.97350    0   34 10683.0000 9272.97350  13.2%     -    0s
H  119   140                    10678.000000 9362.41861  12.3%  54.0    0s
H  409   437                    10674.000000 9462.97663  11.3%  41.8    0s
  5004  3457 10311.1643   29   26 10674.0000 10253.8947  3.94%  98.4    5s
 20486  9819 10608.4200   28   21 10674.0000 10488.1703  1.74%  69.7   10s

Cutting planes:
  Lift-and-project: 10
  Cover: 3
  Implied bound: 12
  Dual implied bound: 5
  MIR: 118
  Flow cover: 539
  Flow path: 37
  Zero half: 34
  Network: 20
  Relax-and-lift: 3

Explored 47368 nodes (2081151 simplex iterations) in 13.45 seconds (18.48 work units)
Thread count was 16 (of 16 available processors)

Solution count 10: 10674 10678 10683 ... 10916

Optimal solution found (tolerance 1.00e-04)
Best objective 1.067400000000e+04, best bound 1.067300000000e+04, gap 0.0094%
